nN = 10;
nR = 50;
nH = 1;

a = [[20, 14, 17, 16, 12, 13, 23, 25, 12, 14, 24, 20, 22, 13, 11, 11, 17, 21, 14, 14, 19, 17, 11, 17, 14, 15, 16, 11, 19, 16, 21, 19, 20, 23, 17, 12, 16, 17, 24, 11, 19, 22, 18, 14, 11, 23, 16, 13, 23, 12], [17, 11, 13, 13, 14, 16, 18, 13, 25, 25, 25, 16, 14, 11, 18, 12, 24, 17, 16, 18, 10, 16, 21, 24, 18, 11, 22, 10, 17, 19, 20, 24, 23, 11, 13, 13, 12, 15, 14, 15, 12, 22, 18, 23, 13, 12, 11, 25, 13, 11], [20, 15, 11, 25, 21, 11, 13, 11, 24, 24, 14, 19, 13, 12, 11, 12, 25, 21, 12, 15, 19, 19, 18, 14, 12, 24, 23, 11, 17, 10, 17, 23, 16, 23, 15, 10, 20, 12, 10, 21, 11, 25, 21, 18, 10, 18, 24, 13, 15, 24], [19, 18, 20, 20, 17, 18, 10, 15, 12, 15, 11, 19, 17, 24, 11, 24, 11, 23, 21, 25, 22, 23, 22, 21, 15, 14, 11, 22, 18, 16, 16, 11, 12, 19, 22, 15, 18, 16, 13, 22, 17, 17, 21, 15, 21, 12, 16, 12, 16, 11], [13, 23, 20, 15, 20, 21, 11, 21, 14, 24, 18, 22, 25, 15, 16, 12, 22, 15, 17, 10, 24, 21, 21, 18, 17, 11, 24, 23, 11, 17, 23, 24, 15, 15, 18, 21, 13, 13, 20, 10, 11, 10, 17, 24, 21, 14, 21, 18, 22, 15], [14, 16, 14, 16, 19, 19, 16, 14, 12, 23, 11, 18, 25, 24, 25, 14, 20, 23, 24, 16, 11, 16, 16, 15, 10, 12, 17, 17, 11, 15, 24, 14, 20, 14, 12, 23, 20, 17, 21, 25, 22, 15, 22, 20, 17, 19, 19, 18, 11, 13], [11, 13, 21, 15, 14, 23, 11, 20, 13, 24, 13, 12, 11, 12, 19, 10, 23, 14, 23, 15, 19, 16, 23, 15, 24, 13, 19, 18, 22, 16, 24, 22, 12, 24, 12, 16, 13, 11, 16, 22, 12, 21, 18, 15, 22, 12, 18, 15, 13, 16], [11, 10, 16, 18, 13, 21, 16, 19, 25, 21, 24, 12, 14, 12, 17, 20, 10, 12, 12, 23, 20, 12, 22, 25, 23, 14, 19, 22, 24, 22, 11, 24, 18, 14, 19, 19, 22, 23, 14, 24, 21, 14, 19, 16, 23, 14, 22, 16, 18, 18], [24, 21, 21, 19, 21, 15, 16, 10, 12, 17, 18, 18, 21, 20, 18, 15, 24, 13, 12, 15, 16, 22, 12, 11, 25, 14, 23, 15, 12, 18, 25, 11, 20, 23, 25, 17, 21, 15, 17, 20, 20, 17, 25, 11, 12, 16, 19, 17, 23, 11], [11, 16, 15, 15, 17, 22, 22, 21, 13, 16, 15, 11, 18, 23, 17, 23, 16, 23, 25, 15, 12, 12, 22, 17, 11, 15, 19, 24, 22, 15, 21, 12, 14, 23, 12, 13, 22, 17, 19, 24, 21, 14, 23, 22, 19, 12, 21, 12, 21, 15]];
c = [[[0, 0, 0, 0, 0, 0, 0, 0, 0, 0, 0, 0, 0, 0, 0, 0, 0, 0, 0, 0, 0, 0, 0, 0, 0, 0, 0, 0, 0, 0, 0, 0, 0, 0, 0, 0, 0, 0, 0, 0, 0, 0, 0, 0, 0, 0, 0, 0, 0, 0], [32, 48, 36, 45, 36, 40, 48, 43, 31, 40, 32, 39, 31, 47, 35, 42, 38, 36, 31, 49, 43, 31, 34, 44, 38, 39, 30, 33, 43, 35, 33, 40, 42, 33, 30, 43, 42, 34, 36, 34, 50, 45, 48, 49, 45, 42, 31, 44, 42, 39], [41, 37, 45, 36, 33, 34, 41, 33, 48, 34, 39, 34, 45, 45, 43, 34, 37, 40, 34, 40, 35, 36, 50, 46, 43, 40, 44, 41, 42, 43, 44, 40, 30, 35, 50, 49, 36, 34, 32, 49, 45, 44, 42, 32, 47, 50, 39, 32, 36, 38], [48, 47, 32, 47, 30, 49, 33, 37, 44, 42, 35, 45, 30, 50, 34, 44, 40, 35, 36, 39, 44, 33, 41, 45, 33, 46, 38, 32, 33, 34, 34, 40, 33, 40, 41, 43, 35, 43, 48, 48, 30, 40, 37, 50, 49, 37, 46, 44, 50, 40], [31, 36, 36, 46, 34, 31, 44, 37, 49, 39, 37, 48, 30, 33, 36, 33, 38, 32, 32, 41, 50, 33, 31, 33, 38, 47, 35, 49, 48, 38, 36, 44, 42, 31, 32, 31, 34, 36, 43, 35, 39, 32, 33, 37, 35, 46, 37, 40, 32, 40], [39, 47, 42, 40, 36, 34, 43, 39, 46, 48, 43, 41, 43, 49, 43, 34, 44, 43, 38, 36, 30, 33, 40, 43, 33, 45, 47, 50, 35, 43, 48, 45, 40, 47, 37, 34, 43, 39, 46, 48, 43, 40, 32, 33, 49, 32, 37, 30, 48, 36], [47, 43, 38, 37, 36, 45, 48, 33, 33, 49, 43, 50, 49, 34, 43, 49, 50, 37, 49, 45, 45, 42, 50, 37, 31, 38, 31, 35, 32, 50, 35, 49, 31, 33, 38, 38, 48, 39, 43, 47, 35, 30, 34, 31, 44, 37, 40, 42, 36, 34], [35, 44, 44, 48, 38, 33, 43, 42, 48, 50, 46, 45, 30, 30, 32, 42, 48, 35, 49, 46, 32, 46, 33, 42, 33, 47, 33, 49, 43, 30, 47, 39, 32, 31, 38, 35, 49, 40, 40, 48, 35, 33, 36, 48, 32, 35, 43, 46, 42, 32], [46, 40, 49, 44, 45, 35, 41, 43, 42, 30, 36, 33, 42, 50, 41, 48, 40, 45, 48, 38, 40, 40, 48, 37, 45, 44, 32, 35, 38, 40, 40, 43, 35, 37, 48, 42, 50, 47, 37, 45, 35, 36, 32, 37, 44, 43, 32, 32, 40, 47], [42, 45, 38, 33, 36, 40, 35, 46, 41, 47, 46, 37, 33, 37, 40, 30, 44, 34, 43, 47, 30, 47, 33, 45, 38, 31, 44, 45, 44, 32, 42, 35, 35, 35, 32, 41, 43, 42, 42, 39, 41, 47, 49, 39, 50, 44, 40, 39, 41, 44]], [[0, 0, 0, 0, 0, 0, 0, 0, 0, 0, 0, 0, 0, 0, 0, 0, 0, 0, 0, 0, 0, 0, 0, 0, 0, 0, 0, 0, 0, 0, 0, 0, 0, 0, 0, 0, 0, 0, 0, 0, 0, 0, 0, 0, 0, 0, 0, 0, 0, 0], [0, 0, 0, 0, 0, 0, 0, 0, 0, 0, 0, 0, 0, 0, 0, 0, 0, 0, 0, 0, 0, 0, 0, 0, 0, 0, 0, 0, 0, 0, 0, 0, 0, 0, 0, 0, 0, 0, 0, 0, 0, 0, 0, 0, 0, 0, 0, 0, 0, 0], [37, 34, 49, 48, 38, 40, 34, 38, 49, 31, 36, 30, 49, 34, 44, 49, 36, 37, 34, 48, 45, 41, 35, 35, 49, 50, 32, 38, 48, 37, 35, 39, 39, 40, 46, 33, 39, 38, 30, 30, 41, 30, 44, 32, 34, 41, 46, 42, 34, 37], [42, 40, 48, 33, 42, 42, 48, 40, 44, 38, 38, 30, 37, 40, 49, 39, 39, 37, 32, 48, 48, 35, 43, 31, 43, 40, 44, 50, 50, 43, 35, 48, 37, 42, 32, 36, 38, 34, 32, 37, 39, 31, 39, 36, 38, 36, 39, 42, 33, 40], [46, 34, 40, 39, 35, 40, 35, 43, 38, 37, 34, 30, 31, 48, 40, 33, 37, 47, 40, 37, 50, 47, 35, 31, 42, 41, 35, 50, 47, 41, 50, 42, 47, 44, 30, 46, 41, 45, 38, 49, 33, 48, 41, 45, 38, 35, 41, 32, 46, 49], [31, 34, 42, 46, 49, 50, 30, 47, 30, 41, 42, 40, 42, 33, 44, 44, 35, 31, 44, 32, 33, 39, 43, 33, 33, 35, 44, 44, 46, 30, 38, 34, 36, 32, 48, 39, 36, 39, 42, 50, 36, 49, 30, 44, 38, 48, 33, 35, 33, 31], [36, 43, 43, 45, 31, 34, 45, 49, 39, 31, 39, 35, 33, 31, 35, 43, 48, 40, 50, 32, 31, 34, 32, 34, 45, 33, 32, 38, 45, 48, 48, 45, 30, 44, 46, 48, 34, 30, 50, 30, 40, 50, 35, 40, 43, 44, 32, 49, 47, 47], [50, 38, 30, 42, 30, 35, 46, 38, 45, 32, 39, 47, 47, 39, 50, 45, 44, 38, 41, 41, 36, 44, 43, 36, 30, 36, 32, 30, 31, 33, 44, 32, 46, 47, 50, 38, 38, 31, 47, 34, 35, 48, 36, 32, 36, 50, 30, 45, 41, 43], [34, 30, 41, 32, 37, 41, 50, 49, 32, 40, 34, 33, 39, 35, 30, 32, 34, 49, 50, 42, 43, 48, 30, 50, 46, 45, 30, 31, 36, 44, 47, 38, 45, 50, 41, 47, 40, 44, 46, 41, 42, 38, 30, 32, 48, 48, 39, 42, 44, 48], [35, 48, 48, 42, 40, 48, 34, 33, 30, 39, 45, 30, 45, 39, 35, 36, 42, 45, 44, 50, 39, 44, 40, 41, 44, 39, 47, 44, 34, 43, 45, 47, 33, 31, 40, 42, 49, 36, 32, 35, 38, 43, 35, 48, 44, 36, 30, 48, 34, 48]], [[0, 0, 0, 0, 0, 0, 0, 0, 0, 0, 0, 0, 0, 0, 0, 0, 0, 0, 0, 0, 0, 0, 0, 0, 0, 0, 0, 0, 0, 0, 0, 0, 0, 0, 0, 0, 0, 0, 0, 0, 0, 0, 0, 0, 0, 0, 0, 0, 0, 0], [0, 0, 0, 0, 0, 0, 0, 0, 0, 0, 0, 0, 0, 0, 0, 0, 0, 0, 0, 0, 0, 0, 0, 0, 0, 0, 0, 0, 0, 0, 0, 0, 0, 0, 0, 0, 0, 0, 0, 0, 0, 0, 0, 0, 0, 0, 0, 0, 0, 0], [0, 0, 0, 0, 0, 0, 0, 0, 0, 0, 0, 0, 0, 0, 0, 0, 0, 0, 0, 0, 0, 0, 0, 0, 0, 0, 0, 0, 0, 0, 0, 0, 0, 0, 0, 0, 0, 0, 0, 0, 0, 0, 0, 0, 0, 0, 0, 0, 0, 0], [36, 50, 50, 46, 36, 33, 37, 44, 45, 36, 35, 39, 46, 32, 45, 46, 45, 37, 48, 48, 45, 31, 42, 35, 50, 49, 30, 37, 36, 44, 42, 36, 35, 45, 47, 40, 31, 40, 32, 31, 37, 45, 41, 31, 48, 33, 32, 35, 41, 50], [46, 30, 36, 31, 41, 46, 48, 40, 43, 41, 32, 34, 43, 35, 36, 50, 38, 39, 39, 35, 30, 48, 33, 32, 33, 44, 37, 45, 44, 35, 32, 34, 44, 35, 45, 31, 48, 46, 38, 37, 31, 40, 46, 30, 44, 36, 44, 35, 44, 37], [33, 30, 32, 30, 47, 46, 49, 39, 49, 44, 44, 36, 43, 37, 49, 46, 42, 34, 44, 49, 43, 44, 43, 45, 30, 43, 30, 32, 46, 38, 37, 45, 33, 41, 33, 32, 43, 39, 44, 36, 35, 45, 47, 37, 37, 33, 36, 48, 48, 47], [45, 38, 48, 39, 50, 31, 34, 36, 39, 42, 30, 43, 41, 50, 40, 37, 36, 45, 42, 40, 46, 41, 39, 39, 47, 44, 47, 30, 34, 45, 30, 35, 42, 42, 36, 44, 33, 43, 35, 46, 33, 34, 43, 47, 50, 35, 39, 39, 39, 48], [47, 34, 48, 46, 45, 41, 46, 46, 30, 47, 43, 43, 34, 34, 37, 34, 35, 43, 38, 36, 35, 49, 44, 45, 38, 40, 39, 33, 45, 32, 38, 48, 48, 50, 46, 31, 46, 37, 47, 30, 30, 38, 34, 46, 34, 33, 32, 50, 32, 30], [40, 30, 46, 44, 48, 30, 43, 31, 49, 50, 46, 35, 33, 32, 48, 38, 37, 35, 40, 35, 44, 47, 48, 38, 35, 40, 49, 46, 31, 41, 44, 35, 38, 48, 30, 40, 32, 41, 37, 38, 47, 36, 50, 32, 43, 38, 40, 50, 44, 30], [38, 32, 33, 41, 48, 46, 45, 50, 41, 36, 50, 37, 45, 40, 42, 50, 34, 35, 39, 50, 32, 49, 40, 40, 48, 49, 50, 45, 42, 48, 39, 33, 45, 30, 40, 30, 32, 46, 39, 36, 35, 41, 41, 36, 42, 39, 37, 43, 49, 50]], [[0, 0, 0, 0, 0, 0, 0, 0, 0, 0, 0, 0, 0, 0, 0, 0, 0, 0, 0, 0, 0, 0, 0, 0, 0, 0, 0, 0, 0, 0, 0, 0, 0, 0, 0, 0, 0, 0, 0, 0, 0, 0, 0, 0, 0, 0, 0, 0, 0, 0], [0, 0, 0, 0, 0, 0, 0, 0, 0, 0, 0, 0, 0, 0, 0, 0, 0, 0, 0, 0, 0, 0, 0, 0, 0, 0, 0, 0, 0, 0, 0, 0, 0, 0, 0, 0, 0, 0, 0, 0, 0, 0, 0, 0, 0, 0, 0, 0, 0, 0], [0, 0, 0, 0, 0, 0, 0, 0, 0, 0, 0, 0, 0, 0, 0, 0, 0, 0, 0, 0, 0, 0, 0, 0, 0, 0, 0, 0, 0, 0, 0, 0, 0, 0, 0, 0, 0, 0, 0, 0, 0, 0, 0, 0, 0, 0, 0, 0, 0, 0], [0, 0, 0, 0, 0, 0, 0, 0, 0, 0, 0, 0, 0, 0, 0, 0, 0, 0, 0, 0, 0, 0, 0, 0, 0, 0, 0, 0, 0, 0, 0, 0, 0, 0, 0, 0, 0, 0, 0, 0, 0, 0, 0, 0, 0, 0, 0, 0, 0, 0], [35, 34, 46, 37, 34, 41, 48, 36, 30, 48, 42, 50, 48, 34, 44, 36, 30, 43, 47, 43, 35, 43, 46, 35, 34, 38, 45, 41, 32, 45, 38, 35, 33, 44, 32, 30, 44, 33, 47, 37, 41, 50, 43, 45, 40, 41, 35, 40, 50, 47], [30, 36, 45, 40, 37, 37, 35, 48, 34, 34, 37, 38, 31, 37, 46, 37, 47, 34, 38, 45, 34, 45, 44, 43, 42, 38, 36, 44, 48, 35, 38, 33, 48, 36, 47, 50, 32, 33, 33, 42, 50, 43, 47, 50, 47, 45, 31, 41, 47, 50], [40, 45, 42, 45, 33, 43, 36, 34, 32, 30, 50, 43, 44, 35, 47, 42, 30, 36, 48, 31, 41, 30, 39, 33, 32, 32, 45, 48, 45, 40, 44, 45, 32, 42, 37, 32, 48, 48, 43, 46, 48, 42, 40, 43, 39, 33, 40, 49, 32, 35], [30, 49, 47, 37, 36, 47, 34, 35, 48, 38, 37, 38, 35, 44, 45, 33, 33, 47, 32, 41, 32, 46, 34, 48, 39, 49, 31, 48, 42, 39, 45, 34, 33, 42, 39, 50, 32, 30, 46, 48, 41, 46, 37, 35, 44, 35, 33, 42, 45, 45], [30, 33, 32, 49, 41, 34, 33, 38, 31, 33, 34, 30, 32, 36, 39, 49, 32, 41, 39, 33, 34, 35, 31, 42, 32, 48, 43, 40, 33, 38, 34, 48, 34, 46, 48, 33, 49, 44, 48, 40, 36, 37, 31, 41, 48, 36, 43, 41, 48, 44], [39, 33, 41, 47, 38, 48, 46, 39, 39, 36, 45, 40, 38, 49, 33, 42, 35, 50, 30, 42, 40, 49, 45, 35, 49, 35, 35, 39, 41, 34, 43, 33, 31, 47, 39, 35, 40, 46, 35, 38, 48, 35, 31, 46, 36, 45, 47, 33, 50, 50]], [[0, 0, 0, 0, 0, 0, 0, 0, 0, 0, 0, 0, 0, 0, 0, 0, 0, 0, 0, 0, 0, 0, 0, 0, 0, 0, 0, 0, 0, 0, 0, 0, 0, 0, 0, 0, 0, 0, 0, 0, 0, 0, 0, 0, 0, 0, 0, 0, 0, 0], [0, 0, 0, 0, 0, 0, 0, 0, 0, 0, 0, 0, 0, 0, 0, 0, 0, 0, 0, 0, 0, 0, 0, 0, 0, 0, 0, 0, 0, 0, 0, 0, 0, 0, 0, 0, 0, 0, 0, 0, 0, 0, 0, 0, 0, 0, 0, 0, 0, 0], [0, 0, 0, 0, 0, 0, 0, 0, 0, 0, 0, 0, 0, 0, 0, 0, 0, 0, 0, 0, 0, 0, 0, 0, 0, 0, 0, 0, 0, 0, 0, 0, 0, 0, 0, 0, 0, 0, 0, 0, 0, 0, 0, 0, 0, 0, 0, 0, 0, 0], [0, 0, 0, 0, 0, 0, 0, 0, 0, 0, 0, 0, 0, 0, 0, 0, 0, 0, 0, 0, 0, 0, 0, 0, 0, 0, 0, 0, 0, 0, 0, 0, 0, 0, 0, 0, 0, 0, 0, 0, 0, 0, 0, 0, 0, 0, 0, 0, 0, 0], [0, 0, 0, 0, 0, 0, 0, 0, 0, 0, 0, 0, 0, 0, 0, 0, 0, 0, 0, 0, 0, 0, 0, 0, 0, 0, 0, 0, 0, 0, 0, 0, 0, 0, 0, 0, 0, 0, 0, 0, 0, 0, 0, 0, 0, 0, 0, 0, 0, 0], [45, 36, 41, 43, 33, 34, 33, 45, 49, 45, 36, 38, 36, 41, 45, 47, 50, 35, 48, 47, 38, 30, 41, 49, 48, 32, 45, 30, 49, 39, 38, 31, 43, 50, 38, 33, 47, 32, 42, 38, 49, 49, 45, 38, 31, 37, 50, 41, 36, 35], [47, 36, 48, 37, 41, 48, 44, 44, 41, 49, 41, 47, 47, 47, 43, 31, 46, 31, 37, 45, 48, 43, 38, 37, 49, 31, 36, 48, 46, 41, 50, 38, 41, 37, 44, 45, 37, 31, 34, 46, 49, 30, 47, 31, 49, 37, 45, 33, 41, 31], [50, 32, 50, 35, 32, 36, 36, 46, 39, 34, 47, 32, 30, 47, 50, 35, 38, 42, 36, 41, 39, 41, 37, 41, 50, 31, 37, 40, 42, 44, 30, 39, 31, 40, 46, 42, 36, 32, 43, 48, 41, 30, 33, 49, 46, 35, 50, 48, 30, 50], [31, 42, 33, 40, 40, 38, 49, 46, 42, 44, 36, 34, 38, 48, 33, 46, 44, 30, 33, 38, 45, 43, 40, 45, 40, 43, 48, 45, 38, 34, 41, 30, 50, 33, 41, 42, 40, 40, 50, 47, 46, 33, 49, 49, 38, 50, 39, 30, 42, 35], [35, 42, 35, 31, 45, 32, 39, 50, 44, 40, 34, 41, 46, 34, 50, 38, 46, 45, 46, 30, 36, 42, 46, 31, 38, 47, 37, 42, 47, 45, 44, 41, 31, 48, 38, 30, 34, 36, 37, 36, 34, 49, 33, 38, 46, 37, 37, 38, 32, 37]], [[0, 0, 0, 0, 0, 0, 0, 0, 0, 0, 0, 0, 0, 0, 0, 0, 0, 0, 0, 0, 0, 0, 0, 0, 0, 0, 0, 0, 0, 0, 0, 0, 0, 0, 0, 0, 0, 0, 0, 0, 0, 0, 0, 0, 0, 0, 0, 0, 0, 0], [0, 0, 0, 0, 0, 0, 0, 0, 0, 0, 0, 0, 0, 0, 0, 0, 0, 0, 0, 0, 0, 0, 0, 0, 0, 0, 0, 0, 0, 0, 0, 0, 0, 0, 0, 0, 0, 0, 0, 0, 0, 0, 0, 0, 0, 0, 0, 0, 0, 0], [0, 0, 0, 0, 0, 0, 0, 0, 0, 0, 0, 0, 0, 0, 0, 0, 0, 0, 0, 0, 0, 0, 0, 0, 0, 0, 0, 0, 0, 0, 0, 0, 0, 0, 0, 0, 0, 0, 0, 0, 0, 0, 0, 0, 0, 0, 0, 0, 0, 0], [0, 0, 0, 0, 0, 0, 0, 0, 0, 0, 0, 0, 0, 0, 0, 0, 0, 0, 0, 0, 0, 0, 0, 0, 0, 0, 0, 0, 0, 0, 0, 0, 0, 0, 0, 0, 0, 0, 0, 0, 0, 0, 0, 0, 0, 0, 0, 0, 0, 0], [0, 0, 0, 0, 0, 0, 0, 0, 0, 0, 0, 0, 0, 0, 0, 0, 0, 0, 0, 0, 0, 0, 0, 0, 0, 0, 0, 0, 0, 0, 0, 0, 0, 0, 0, 0, 0, 0, 0, 0, 0, 0, 0, 0, 0, 0, 0, 0, 0, 0], [0, 0, 0, 0, 0, 0, 0, 0, 0, 0, 0, 0, 0, 0, 0, 0, 0, 0, 0, 0, 0, 0, 0, 0, 0, 0, 0, 0, 0, 0, 0, 0, 0, 0, 0, 0, 0, 0, 0, 0, 0, 0, 0, 0, 0, 0, 0, 0, 0, 0], [35, 43, 44, 34, 32, 32, 48, 35, 47, 32, 48, 38, 49, 47, 39, 31, 34, 35, 41, 38, 47, 30, 33, 49, 48, 47, 38, 42, 47, 45, 42, 30, 40, 47, 41, 30, 49, 39, 50, 41, 44, 47, 41, 41, 42, 38, 30, 32, 31, 40], [30, 35, 42, 47, 44, 31, 46, 39, 36, 40, 34, 31, 49, 38, 38, 36, 38, 30, 49, 50, 42, 46, 31, 39, 30, 44, 41, 33, 33, 41, 42, 42, 43, 38, 44, 41, 50, 30, 31, 42, 48, 49, 35, 50, 32, 46, 34, 30, 45, 33], [45, 39, 46, 45, 45, 33, 30, 34, 45, 46, 48, 34, 50, 39, 46, 36, 30, 36, 40, 31, 37, 36, 33, 49, 35, 47, 46, 44, 45, 35, 31, 43, 46, 47, 35, 46, 50, 48, 47, 46, 45, 41, 38, 47, 41, 42, 48, 30, 34, 44], [37, 37, 38, 48, 44, 50, 47, 35, 50, 47, 37, 47, 42, 31, 39, 37, 30, 41, 49, 41, 45, 45, 50, 30, 48, 39, 35, 44, 36, 39, 33, 39, 43, 47, 39, 40, 42, 40, 35, 32, 47, 43, 33, 40, 48, 42, 35, 41, 30, 32]], [[0, 0, 0, 0, 0, 0, 0, 0, 0, 0, 0, 0, 0, 0, 0, 0, 0, 0, 0, 0, 0, 0, 0, 0, 0, 0, 0, 0, 0, 0, 0, 0, 0, 0, 0, 0, 0, 0, 0, 0, 0, 0, 0, 0, 0, 0, 0, 0, 0, 0], [0, 0, 0, 0, 0, 0, 0, 0, 0, 0, 0, 0, 0, 0, 0, 0, 0, 0, 0, 0, 0, 0, 0, 0, 0, 0, 0, 0, 0, 0, 0, 0, 0, 0, 0, 0, 0, 0, 0, 0, 0, 0, 0, 0, 0, 0, 0, 0, 0, 0], [0, 0, 0, 0, 0, 0, 0, 0, 0, 0, 0, 0, 0, 0, 0, 0, 0, 0, 0, 0, 0, 0, 0, 0, 0, 0, 0, 0, 0, 0, 0, 0, 0, 0, 0, 0, 0, 0, 0, 0, 0, 0, 0, 0, 0, 0, 0, 0, 0, 0], [0, 0, 0, 0, 0, 0, 0, 0, 0, 0, 0, 0, 0, 0, 0, 0, 0, 0, 0, 0, 0, 0, 0, 0, 0, 0, 0, 0, 0, 0, 0, 0, 0, 0, 0, 0, 0, 0, 0, 0, 0, 0, 0, 0, 0, 0, 0, 0, 0, 0], [0, 0, 0, 0, 0, 0, 0, 0, 0, 0, 0, 0, 0, 0, 0, 0, 0, 0, 0, 0, 0, 0, 0, 0, 0, 0, 0, 0, 0, 0, 0, 0, 0, 0, 0, 0, 0, 0, 0, 0, 0, 0, 0, 0, 0, 0, 0, 0, 0, 0], [0, 0, 0, 0, 0, 0, 0, 0, 0, 0, 0, 0, 0, 0, 0, 0, 0, 0, 0, 0, 0, 0, 0, 0, 0, 0, 0, 0, 0, 0, 0, 0, 0, 0, 0, 0, 0, 0, 0, 0, 0, 0, 0, 0, 0, 0, 0, 0, 0, 0], [0, 0, 0, 0, 0, 0, 0, 0, 0, 0, 0, 0, 0, 0, 0, 0, 0, 0, 0, 0, 0, 0, 0, 0, 0, 0, 0, 0, 0, 0, 0, 0, 0, 0, 0, 0, 0, 0, 0, 0, 0, 0, 0, 0, 0, 0, 0, 0, 0, 0], [48, 43, 33, 34, 40, 46, 40, 42, 31, 45, 41, 36, 41, 30, 41, 38, 36, 36, 48, 45, 33, 39, 47, 39, 32, 40, 34, 47, 41, 30, 47, 39, 33, 37, 47, 30, 39, 36, 46, 47, 35, 48, 45, 35, 42, 39, 31, 36, 41, 49], [31, 45, 42, 31, 45, 41, 34, 47, 35, 30, 47, 50, 37, 33, 48, 35, 37, 38, 40, 31, 46, 33, 36, 33, 46, 45, 46, 44, 37, 50, 38, 33, 33, 42, 38, 37, 47, 42, 39, 37, 36, 36, 42, 31, 42, 35, 47, 31, 30, 42], [32, 48, 48, 44, 44, 40, 34, 49, 35, 35, 45, 30, 35, 46, 49, 37, 39, 48, 48, 48, 45, 32, 43, 40, 48, 48, 47, 33, 31, 33, 44, 42, 31, 41, 33, 38, 32, 30, 47, 50, 46, 48, 47, 33, 42, 35, 40, 50, 39, 33]], [[0, 0, 0, 0, 0, 0, 0, 0, 0, 0, 0, 0, 0, 0, 0, 0, 0, 0, 0, 0, 0, 0, 0, 0, 0, 0, 0, 0, 0, 0, 0, 0, 0, 0, 0, 0, 0, 0, 0, 0, 0, 0, 0, 0, 0, 0, 0, 0, 0, 0], [0, 0, 0, 0, 0, 0, 0, 0, 0, 0, 0, 0, 0, 0, 0, 0, 0, 0, 0, 0, 0, 0, 0, 0, 0, 0, 0, 0, 0, 0, 0, 0, 0, 0, 0, 0, 0, 0, 0, 0, 0, 0, 0, 0, 0, 0, 0, 0, 0, 0], [0, 0, 0, 0, 0, 0, 0, 0, 0, 0, 0, 0, 0, 0, 0, 0, 0, 0, 0, 0, 0, 0, 0, 0, 0, 0, 0, 0, 0, 0, 0, 0, 0, 0, 0, 0, 0, 0, 0, 0, 0, 0, 0, 0, 0, 0, 0, 0, 0, 0], [0, 0, 0, 0, 0, 0, 0, 0, 0, 0, 0, 0, 0, 0, 0, 0, 0, 0, 0, 0, 0, 0, 0, 0, 0, 0, 0, 0, 0, 0, 0, 0, 0, 0, 0, 0, 0, 0, 0, 0, 0, 0, 0, 0, 0, 0, 0, 0, 0, 0], [0, 0, 0, 0, 0, 0, 0, 0, 0, 0, 0, 0, 0, 0, 0, 0, 0, 0, 0, 0, 0, 0, 0, 0, 0, 0, 0, 0, 0, 0, 0, 0, 0, 0, 0, 0, 0, 0, 0, 0, 0, 0, 0, 0, 0, 0, 0, 0, 0, 0], [0, 0, 0, 0, 0, 0, 0, 0, 0, 0, 0, 0, 0, 0, 0, 0, 0, 0, 0, 0, 0, 0, 0, 0, 0, 0, 0, 0, 0, 0, 0, 0, 0, 0, 0, 0, 0, 0, 0, 0, 0, 0, 0, 0, 0, 0, 0, 0, 0, 0], [0, 0, 0, 0, 0, 0, 0, 0, 0, 0, 0, 0, 0, 0, 0, 0, 0, 0, 0, 0, 0, 0, 0, 0, 0, 0, 0, 0, 0, 0, 0, 0, 0, 0, 0, 0, 0, 0, 0, 0, 0, 0, 0, 0, 0, 0, 0, 0, 0, 0], [0, 0, 0, 0, 0, 0, 0, 0, 0, 0, 0, 0, 0, 0, 0, 0, 0, 0, 0, 0, 0, 0, 0, 0, 0, 0, 0, 0, 0, 0, 0, 0, 0, 0, 0, 0, 0, 0, 0, 0, 0, 0, 0, 0, 0, 0, 0, 0, 0, 0], [38, 34, 36, 36, 43, 40, 46, 40, 34, 30, 44, 35, 46, 48, 35, 33, 30, 36, 50, 40, 30, 39, 49, 38, 43, 48, 33, 45, 48, 41, 32, 42, 46, 48, 33, 43, 40, 32, 46, 32, 42, 43, 30, 39, 32, 31, 40, 48, 48, 41], [38, 46, 46, 48, 49, 34, 50, 43, 37, 42, 47, 43, 32, 50, 37, 44, 31, 37, 42, 31, 43, 32, 40, 48, 39, 41, 38, 43, 41, 36, 49, 42, 50, 45, 49, 42, 36, 32, 41, 36, 45, 45, 34, 34, 33, 39, 37, 34, 34, 46]], [[0, 0, 0, 0, 0, 0, 0, 0, 0, 0, 0, 0, 0, 0, 0, 0, 0, 0, 0, 0, 0, 0, 0, 0, 0, 0, 0, 0, 0, 0, 0, 0, 0, 0, 0, 0, 0, 0, 0, 0, 0, 0, 0, 0, 0, 0, 0, 0, 0, 0], [0, 0, 0, 0, 0, 0, 0, 0, 0, 0, 0, 0, 0, 0, 0, 0, 0, 0, 0, 0, 0, 0, 0, 0, 0, 0, 0, 0, 0, 0, 0, 0, 0, 0, 0, 0, 0, 0, 0, 0, 0, 0, 0, 0, 0, 0, 0, 0, 0, 0], [0, 0, 0, 0, 0, 0, 0, 0, 0, 0, 0, 0, 0, 0, 0, 0, 0, 0, 0, 0, 0, 0, 0, 0, 0, 0, 0, 0, 0, 0, 0, 0, 0, 0, 0, 0, 0, 0, 0, 0, 0, 0, 0, 0, 0, 0, 0, 0, 0, 0], [0, 0, 0, 0, 0, 0, 0, 0, 0, 0, 0, 0, 0, 0, 0, 0, 0, 0, 0, 0, 0, 0, 0, 0, 0, 0, 0, 0, 0, 0, 0, 0, 0, 0, 0, 0, 0, 0, 0, 0, 0, 0, 0, 0, 0, 0, 0, 0, 0, 0], [0, 0, 0, 0, 0, 0, 0, 0, 0, 0, 0, 0, 0, 0, 0, 0, 0, 0, 0, 0, 0, 0, 0, 0, 0, 0, 0, 0, 0, 0, 0, 0, 0, 0, 0, 0, 0, 0, 0, 0, 0, 0, 0, 0, 0, 0, 0, 0, 0, 0], [0, 0, 0, 0, 0, 0, 0, 0, 0, 0, 0, 0, 0, 0, 0, 0, 0, 0, 0, 0, 0, 0, 0, 0, 0, 0, 0, 0, 0, 0, 0, 0, 0, 0, 0, 0, 0, 0, 0, 0, 0, 0, 0, 0, 0, 0, 0, 0, 0, 0], [0, 0, 0, 0, 0, 0, 0, 0, 0, 0, 0, 0, 0, 0, 0, 0, 0, 0, 0, 0, 0, 0, 0, 0, 0, 0, 0, 0, 0, 0, 0, 0, 0, 0, 0, 0, 0, 0, 0, 0, 0, 0, 0, 0, 0, 0, 0, 0, 0, 0], [0, 0, 0, 0, 0, 0, 0, 0, 0, 0, 0, 0, 0, 0, 0, 0, 0, 0, 0, 0, 0, 0, 0, 0, 0, 0, 0, 0, 0, 0, 0, 0, 0, 0, 0, 0, 0, 0, 0, 0, 0, 0, 0, 0, 0, 0, 0, 0, 0, 0], [0, 0, 0, 0, 0, 0, 0, 0, 0, 0, 0, 0, 0, 0, 0, 0, 0, 0, 0, 0, 0, 0, 0, 0, 0, 0, 0, 0, 0, 0, 0, 0, 0, 0, 0, 0, 0, 0, 0, 0, 0, 0, 0, 0, 0, 0, 0, 0, 0, 0], [32, 40, 47, 41, 40, 42, 33, 41, 45, 45, 47, 50, 49, 35, 47, 42, 49, 42, 30, 33, 34, 47, 49, 42, 36, 45, 48, 48, 44, 35, 47, 47, 34, 36, 37, 43, 35, 43, 34, 39, 44, 47, 41, 41, 49, 40, 32, 43, 50, 35]], [[0, 0, 0, 0, 0, 0, 0, 0, 0, 0, 0, 0, 0, 0, 0, 0, 0, 0, 0, 0, 0, 0, 0, 0, 0, 0, 0, 0, 0, 0, 0, 0, 0, 0, 0, 0, 0, 0, 0, 0, 0, 0, 0, 0, 0, 0, 0, 0, 0, 0], [0, 0, 0, 0, 0, 0, 0, 0, 0, 0, 0, 0, 0, 0, 0, 0, 0, 0, 0, 0, 0, 0, 0, 0, 0, 0, 0, 0, 0, 0, 0, 0, 0, 0, 0, 0, 0, 0, 0, 0, 0, 0, 0, 0, 0, 0, 0, 0, 0, 0], [0, 0, 0, 0, 0, 0, 0, 0, 0, 0, 0, 0, 0, 0, 0, 0, 0, 0, 0, 0, 0, 0, 0, 0, 0, 0, 0, 0, 0, 0, 0, 0, 0, 0, 0, 0, 0, 0, 0, 0, 0, 0, 0, 0, 0, 0, 0, 0, 0, 0], [0, 0, 0, 0, 0, 0, 0, 0, 0, 0, 0, 0, 0, 0, 0, 0, 0, 0, 0, 0, 0, 0, 0, 0, 0, 0, 0, 0, 0, 0, 0, 0, 0, 0, 0, 0, 0, 0, 0, 0, 0, 0, 0, 0, 0, 0, 0, 0, 0, 0], [0, 0, 0, 0, 0, 0, 0, 0, 0, 0, 0, 0, 0, 0, 0, 0, 0, 0, 0, 0, 0, 0, 0, 0, 0, 0, 0, 0, 0, 0, 0, 0, 0, 0, 0, 0, 0, 0, 0, 0, 0, 0, 0, 0, 0, 0, 0, 0, 0, 0], [0, 0, 0, 0, 0, 0, 0, 0, 0, 0, 0, 0, 0, 0, 0, 0, 0, 0, 0, 0, 0, 0, 0, 0, 0, 0, 0, 0, 0, 0, 0, 0, 0, 0, 0, 0, 0, 0, 0, 0, 0, 0, 0, 0, 0, 0, 0, 0, 0, 0], [0, 0, 0, 0, 0, 0, 0, 0, 0, 0, 0, 0, 0, 0, 0, 0, 0, 0, 0, 0, 0, 0, 0, 0, 0, 0, 0, 0, 0, 0, 0, 0, 0, 0, 0, 0, 0, 0, 0, 0, 0, 0, 0, 0, 0, 0, 0, 0, 0, 0], [0, 0, 0, 0, 0, 0, 0, 0, 0, 0, 0, 0, 0, 0, 0, 0, 0, 0, 0, 0, 0, 0, 0, 0, 0, 0, 0, 0, 0, 0, 0, 0, 0, 0, 0, 0, 0, 0, 0, 0, 0, 0, 0, 0, 0, 0, 0, 0, 0, 0], [0, 0, 0, 0, 0, 0, 0, 0, 0, 0, 0, 0, 0, 0, 0, 0, 0, 0, 0, 0, 0, 0, 0, 0, 0, 0, 0, 0, 0, 0, 0, 0, 0, 0, 0, 0, 0, 0, 0, 0, 0, 0, 0, 0, 0, 0, 0, 0, 0, 0], [0, 0, 0, 0, 0, 0, 0, 0, 0, 0, 0, 0, 0, 0, 0, 0, 0, 0, 0, 0, 0, 0, 0, 0, 0, 0, 0, 0, 0, 0, 0, 0, 0, 0, 0, 0, 0, 0, 0, 0, 0, 0, 0, 0, 0, 0, 0, 0, 0, 0]]];

q = [[[5], [22], [22], [15], [13], [22], [6], [20], [17], [16], [6], [22], [18], [22], [9], [21], [22], [23], [21], [6], [9], [18], [12], [9], [5], [24], [24], [21], [6], [8], [17], [7], [13], [12], [11], [23], [5], [12], [15], [25], [20], [8], [6], [10], [12], [15], [7], [11], [9], [8]], [[16], [19], [17], [23], [9], [6], [22], [18], [17], [18], [12], [15], [12], [24], [10], [23], [16], [25], [16], [16], [22], [7], [14], [23], [6], [17], [9], [9], [8], [6], [7], [15], [10], [17], [8], [15], [22], [7], [20], [11], [9], [6], [20], [9], [18], [5], [15], [5], [12], [19]], [[17], [16], [20], [16], [22], [21], [13], [20], [9], [18], [20], [24], [16], [20], [15], [5], [18], [5], [18], [24], [9], [23], [7], [11], [25], [17], [12], [16], [6], [16], [22], [7], [21], [6], [16], [21], [11], [23], [8], [5], [12], [24], [8], [8], [15], [13], [21], [8], [16], [18]], [[15], [12], [20], [23], [9], [22], [14], [9], [17], [15], [10], [11], [8], [23], [13], [17], [7], [17], [15], [16], [15], [8], [19], [6], [11], [8], [15], [20], [13], [11], [10], [12], [11], [12], [22], [11], [13], [18], [7], [6], [13], [23], [23], [18], [17], [10], [18], [17], [13], [23]], [[17], [21], [18], [11], [19], [24], [11], [23], [15], [7], [14], [13], [18], [6], [18], [19], [15], [8], [17], [5], [20], [18], [16], [15], [10], [21], [16], [24], [25], [17], [23], [22], [20], [9], [15], [13], [15], [18], [15], [15], [22], [12], [6], [16], [19], [23], [24], [25], [10], [23]], [[23], [16], [24], [21], [14], [24], [11], [8], [7], [16], [16], [13], [19], [6], [7], [11], [24], [19], [20], [24], [13], [23], [19], [25], [17], [12], [9], [11], [6], [20], [19], [23], [14], [12], [21], [17], [22], [23], [11], [7], [8], [11], [17], [17], [25], [14], [10], [7], [21], [21]], [[12], [20], [15], [17], [21], [8], [17], [9], [9], [19], [6], [21], [5], [13], [17], [18], [17], [8], [11], [7], [17], [14], [6], [6], [18], [21], [13], [12], [18], [14], [19], [11], [19], [10], [5], [19], [8], [22], [18], [14], [17], [23], [14], [5], [16], [22], [18], [20], [13], [10]], [[9], [14], [14], [24], [11], [9], [14], [21], [21], [21], [8], [18], [23], [21], [25], [11], [24], [16], [24], [6], [15], [24], [14], [6], [25], [9], [8], [24], [12], [25], [23], [11], [19], [9], [8], [10], [11], [18], [6], [12], [12], [20], [6], [11], [10], [22], [24], [11], [8], [21]], [[6], [16], [24], [8], [7], [11], [22], [21], [7], [19], [6], [19], [17], [12], [22], [22], [25], [22], [19], [22], [15], [17], [19], [21], [7], [16], [8], [6], [9], [14], [12], [10], [14], [6], [22], [5], [7], [5], [14], [6], [9], [19], [19], [11], [16], [5], [16], [8], [6], [8]], [[8], [18], [10], [17], [18], [10], [16], [20], [17], [6], [23], [15], [5], [8], [6], [9], [8], [23], [8], [18], [16], [15], [14], [23], [11], [24], [16], [23], [14], [8], [25], [17], [17], [21], [18], [22], [17], [11], [17], [14], [11], [7], [18], [23], [16], [17], [24], [5], [12], [21]]];
Q = [[69], [66], [71], [70], [70], [56], [56], [60], [57], [66]];
